Gurobi Optimizer version 9.1.0 build v9.1.0rc0 (linux64)
Thread count: 8 physical cores, 16 logical processors, using up to 16 threads
Optimize a model with 207966 rows, 200800 columns and 1151950 nonzeros
Model fingerprint: 0xd6018757
Variable types: 0 continuous, 200800 integer (200800 binary)
Coefficient statistics:
  Matrix range     [1e+00, 1e+00]
  Objective range  [1e+01, 5e+04]
  Bounds range     [1e+00, 1e+00]
  RHS range        [1e+00, 5e+02]
Presolve removed 3050 rows and 50 columns (presolve time = 5s) ...
Presolve added 0 rows and 2950 columns
Presolve removed 50 rows and 0 columns
Presolve time: 5.31s
Presolved: 207916 rows, 203750 columns, 860850 nonzeros
Variable types: 0 continuous, 203750 integer (203750 binary)
Found heuristic solution: objective 352109.00000

Concurrent LP optimizer: primal simplex, dual simplex, and barrier
Showing barrier log only...

Root barrier log...

Ordering time: 0.07s

Barrier statistics:
 Dense cols : 400
 AA' NZ     : 6.668e+05
 Factor NZ  : 2.815e+06 (roughly 200 MBytes of memory)
 Factor Ops : 6.809e+08 (less than 1 second per iteration)
 Threads    : 6

                  Objective                Residual
Iter       Primal          Dual         Primal    Dual     Compl     Time
   0   1.97076460e+08 -2.84632490e+08  4.35e+02 2.93e+01  1.50e+04    10s
   1   1.17680696e+06 -2.69960543e+08  7.89e+00 7.83e+03  5.51e+02    10s
   2   4.98564771e+05 -1.37639841e+07  1.21e+00 3.34e+02  3.06e+01    10s
   3   3.84420634e+05 -1.40354764e+06  1.12e-01 1.13e+01  3.05e+00    11s
   4   3.63941104e+05 -1.46633638e+05  4.98e-02 2.72e+00  8.44e-01    11s
   5   3.46972416e+05  1.29443309e+05  3.55e-02 9.02e-01  3.55e-01    12s
   6   3.36287778e+05  1.97668620e+05  2.87e-02 4.84e-01  2.25e-01    12s
   7   3.28875054e+05  2.29910644e+05  2.52e-02 2.69e-01  1.59e-01    13s
   8   3.18952532e+05  2.40861746e+05  2.08e-02 1.92e-01  1.26e-01    13s
   9   3.12944709e+05  2.48558728e+05  1.82e-02 1.42e-01  1.03e-01    14s
  10   3.08920659e+05  2.53686817e+05  1.65e-02 1.06e-01  8.84e-02    14s
  11   2.99717872e+05  2.58470180e+05  1.29e-02 7.13e-02  6.59e-02    15s
  12   2.96387714e+05  2.61543956e+05  1.18e-02 4.66e-02  5.56e-02    16s
  13   2.89692909e+05  2.62963737e+05  9.43e-03 3.53e-02  4.26e-02    16s
  14   2.85848107e+05  2.64147826e+05  7.97e-03 2.58e-02  3.45e-02    17s
  15   2.82871300e+05  2.65119305e+05  6.82e-03 1.91e-02  2.82e-02    17s
  16   2.79653649e+05  2.65745614e+05  5.48e-03 1.47e-02  2.21e-02    18s
  17   2.77297841e+05  2.66304965e+05  4.46e-03 1.04e-02  1.74e-02    18s
  18   2.75813978e+05  2.66621101e+05  3.84e-03 8.67e-03  1.46e-02    19s
  19   2.74943174e+05  2.66861610e+05  3.50e-03 7.41e-03  1.28e-02    19s
  20   2.72945744e+05  2.67054363e+05  2.62e-03 5.63e-03  9.31e-03    20s
  21   2.72092475e+05  2.67162393e+05  2.23e-03 4.74e-03  7.79e-03    20s
  22   2.71697036e+05  2.67271152e+05  2.04e-03 3.94e-03  6.99e-03    21s
  23   2.71080217e+05  2.67446581e+05  1.71e-03 2.67e-03  5.73e-03    21s
  24   2.70568020e+05  2.67489490e+05  1.45e-03 2.41e-03  4.85e-03    22s
  25   2.70276235e+05  2.67522812e+05  1.30e-03 2.14e-03  4.34e-03    22s
  26   2.70165863e+05  2.67569476e+05  1.26e-03 1.71e-03  4.09e-03    23s
  27   2.69776684e+05  2.67626844e+05  1.05e-03 1.63e-03  3.39e-03    23s
  28   2.69323083e+05  2.67650933e+05  8.28e-04 1.48e-03  2.63e-03    24s
  29   2.69127099e+05  2.67674695e+05  7.25e-04 1.30e-03  2.29e-03    24s
  30   2.68900519e+05  2.67696220e+05  6.08e-04 1.12e-03  1.89e-03    25s
  31   2.68777679e+05  2.67732742e+05  5.44e-04 7.37e-04  1.64e-03    25s
  32   2.68747183e+05  2.67744039e+05  5.28e-04 6.48e-04  1.58e-03    26s
  33   2.68603127e+05  2.67757716e+05  4.47e-04 5.71e-04  1.33e-03    26s
  34   2.68491208e+05  2.67766822e+05  3.90e-04 4.86e-04  1.14e-03    27s
  35   2.68411454e+05  2.67777398e+05  3.46e-04 4.39e-04  9.94e-04    27s
  36   2.68380839e+05  2.67782916e+05  3.28e-04 3.89e-04  9.37e-04    28s
  37   2.68338874e+05  2.67786098e+05  3.04e-04 3.71e-04  8.66e-04    28s
  38   2.68252005e+05  2.67793417e+05  2.56e-04 3.39e-04  7.18e-04    28s
  39   2.68181807e+05  2.67805507e+05  2.17e-04 2.02e-04  5.89e-04    29s
  40   2.68127620e+05  2.67809727e+05  1.84e-04 1.76e-04  4.97e-04    29s
  41   2.68094743e+05  2.67813045e+05  1.64e-04 1.51e-04  4.40e-04    30s
  42   2.68048536e+05  2.67816855e+05  1.38e-04 1.24e-04  3.62e-04    30s
  43   2.68006509e+05  2.67818900e+05  1.11e-04 1.11e-04  2.93e-04    31s
  44   2.67994167e+05  2.67822726e+05  1.04e-04 9.02e-05  2.68e-04    31s
  45   2.67970534e+05  2.67823849e+05  8.94e-05 8.28e-05  2.29e-04    32s
  46   2.67960868e+05  2.67826824e+05  8.32e-05 6.46e-05  2.09e-04    32s
  47   2.67936324e+05  2.67827866e+05  6.83e-05 5.74e-05  1.69e-04    33s
  48   2.67923995e+05  2.67829658e+05  6.11e-05 4.56e-05  1.47e-04    33s
  49   2.67912682e+05  2.67830265e+05  5.37e-05 4.37e-05  1.28e-04    34s
  50   2.67904908e+05  2.67832646e+05  4.87e-05 2.86e-05  1.12e-04    34s
  51   2.67894966e+05  2.67833323e+05  4.21e-05 2.54e-05  9.56e-05    35s
  52   2.67887205e+05  2.67833586e+05  3.66e-05 2.41e-05  8.32e-05    35s
  53   2.67880373e+05  2.67834050e+05  3.16e-05 2.19e-05  7.19e-05    35s
  54   2.67877567e+05  2.67835083e+05  2.95e-05 1.60e-05  6.59e-05    36s
  55   2.67868467e+05  2.67835376e+05  2.31e-05 1.44e-05  5.13e-05    36s
  56   2.67863533e+05  2.67835646e+05  1.95e-05 1.31e-05  4.32e-05    37s
  57   2.67860708e+05  2.67835987e+05  1.75e-05 1.16e-05  3.83e-05    37s
  58   2.67858457e+05  2.67836270e+05  1.57e-05 1.00e-05  3.43e-05    38s
  59   2.67856446e+05  2.67836573e+05  1.43e-05 8.39e-06  3.07e-05    38s
  60   2.67854692e+05  2.67836710e+05  1.30e-05 7.45e-06  2.78e-05    39s
  61   2.67853710e+05  2.67836790e+05  1.22e-05 6.96e-06  2.62e-05    39s
  62   2.67852093e+05  2.67836881e+05  1.10e-05 6.37e-06  2.35e-05    39s
  63   2.67849497e+05  2.67837014e+05  9.01e-06 5.57e-06  1.93e-05    40s
  64   2.67847735e+05  2.67837375e+05  7.74e-06 3.95e-06  1.60e-05    40s
  65   2.67846033e+05  2.67837511e+05  6.53e-06 3.04e-06  1.31e-05    41s
  66   2.67844800e+05  2.67837571e+05  5.52e-06 2.69e-06  1.11e-05    41s
  67   2.67842359e+05  2.67837678e+05  3.62e-06 2.05e-06  7.21e-06    42s
  68   2.67841598e+05  2.67837813e+05  3.03e-06 1.17e-06  5.82e-06    42s
  69   2.67840914e+05  2.67837868e+05  2.44e-06 8.48e-07  4.68e-06    42s
  70   2.67840414e+05  2.67837890e+05  2.03e-06 7.15e-07  3.88e-06    43s
  71   2.67839784e+05  2.67838016e+05  1.48e-06 3.57e-07  2.71e-06    43s
  72   2.67839337e+05  2.67838026e+05  1.09e-06 1.42e-07  2.01e-06    44s
  73   2.67839262e+05  2.67838026e+05  1.03e-06 1.37e-07  1.89e-06    44s
  74   2.67839051e+05  2.67838029e+05  8.50e-07 1.08e-06  1.57e-06    44s
  75   2.67838831e+05  2.67838035e+05  6.62e-07 5.01e-07  1.22e-06    45s
  76   2.67838451e+05  2.67838037e+05  3.33e-07 3.95e-07  6.36e-07    45s
  77   2.67838313e+05  2.67838041e+05  2.18e-07 2.76e-07  4.19e-07    45s
  78   2.67838291e+05  2.67838044e+05  1.98e-07 2.04e-07  3.79e-07    45s
  79   2.67838183e+05  2.67838050e+05  1.08e-07 2.13e-07  2.05e-07    46s
  80   2.67838083e+05  2.67838053e+05  2.48e-08 1.52e-07  4.70e-08    46s
  81   2.67838077e+05  2.67838053e+05  1.93e-08 1.10e-07  3.65e-08    46s
  82   2.67838076e+05  2.67838053e+05  2.71e-08 1.07e-07  3.50e-08    47s
  83   2.67838076e+05  2.67838053e+05  6.69e-08 1.07e-07  3.49e-08    47s
  84   2.67838076e+05  2.67838053e+05  6.69e-08 1.07e-07  3.49e-08    47s

Barrier solved model in 84 iterations and 47.37 seconds
Optimal objective 2.67838076e+05


Root crossover log...

   97688 variables added to crossover basis                       50s
   99589 variables added to crossover basis                       55s
  100793 variables added to crossover basis                       60s

  106846 DPushes remaining with DInf 0.0000000e+00                61s
    4411 DPushes remaining with DInf 0.0000000e+00                70s
    3915 DPushes remaining with DInf 0.0000000e+00                70s
    1526 DPushes remaining with DInf 0.0000000e+00                75s
       0 DPushes remaining with DInf 0.0000000e+00                79s

    1005 PPushes remaining with PInf 0.0000000e+00                79s
       0 PPushes remaining with PInf 0.0000000e+00                80s

  Push phase complete: Pinf 0.0000000e+00, Dinf 1.9657400e-02     80s


Root simplex log...

Iteration    Objective       Primal Inf.    Dual Inf.      Time
   21599    2.6783805e+05   0.000000e+00   1.965740e-02     80s
   21600    2.6783805e+05   0.000000e+00   0.000000e+00     80s
   21600    2.6783805e+05   0.000000e+00   0.000000e+00     80s

Solved with barrier

Root relaxation: objective 2.678381e+05, 21600 iterations, 71.71 seconds
Total elapsed time = 81.95s

    Nodes    |    Current Node    |     Objective Bounds      |     Work
 Expl Unexpl |  Obj  Depth IntInf | Incumbent    BestBd   Gap | It/Node Time

     0     0 267838.053    0 19178 352109.000 267838.053  23.9%     -   84s
H    0     0                    287165.00000 267838.053  6.73%     -   89s
H    0     0                    287138.00000 267838.053  6.72%     -   91s
H    0     0                    286891.00000 267838.053  6.64%     -   93s
     0     0 267838.053    0 19178 286891.000 267838.053  6.64%     -  185s
H    0     0                    286869.00000 267838.053  6.63%     -  267s
     0     2 267838.053    0 19178 286869.000 267838.053  6.63%     -  286s

Explored 1 nodes (28022 simplex iterations) in 300.04 seconds
Thread count was 16 (of 16 available processors)

Solution count 5: 286869 286891 287138 ... 352109

Time limit reached
Best objective 2.868690000000e+05, best bound 2.678380902876e+05, gap 6.6340%

User-callback calls 23456, time in user-callback 0.48 sec
['/opt/local/stow/gurobi910/linux64/lib/libgurobi91.so']
Result: runtime=286.81sec; objective=286869; gap=0.0663%
Solution written to /autofs/unityaccount/cremi/mdeboute/Bureau/multi-period-flp/solution//instSingle_I50_J500_T8_0_result.txt
